50
1000
298
298
298
297
293
293
291
285
283
278
277
272
270
264
258
250
246
236
232
231
230
229
225
219
216
216
215
211
208
193
192
190
181
175
173
172
170
149
149
141
135
132
130
120
119
115
113
109
107
105
